(set-logic HORN)
(set-info :source |
    Benchmark: C_VC
    Output by Princess (http://www.philipp.ruemmer.org/princess.shtml)
|)
(set-info :status unsat)
(declare-fun inv_main252 (Int Int Int Int Int Int Int Int Int Int Int Int Int Int Int Int Int Int Int Int Int Int Int Int Int Int Int Int) Bool)
(declare-fun inv_main260 (Int Int Int Int Int Int Int Int Int Int Int Int Int Int Int Int Int Int Int Int Int Int Int Int Int Int Int Int) Bool)
(declare-fun inv_main268 (Int Int Int Int Int Int Int Int Int Int Int Int Int Int Int Int Int Int Int Int Int Int Int Int Int Int Int Int) Bool)
(declare-fun inv_main276 (Int Int Int Int Int Int Int Int Int Int Int Int Int Int Int Int Int Int Int Int Int Int Int Int Int Int Int Int) Bool)
(declare-fun inv_main284 (Int Int Int Int Int Int Int Int Int Int Int Int Int Int Int Int Int Int Int Int Int Int Int Int Int Int Int Int) Bool)
(declare-fun inv_main287 (Int Int Int Int Int Int Int Int Int Int Int Int Int Int Int Int Int Int Int Int Int Int Int Int Int Int Int Int) Bool)
(declare-fun inv_main6 (Int Int Int Int) Bool)
(assert (forall ((var0 Int) (var1 Int) (var2 Int)) (inv_main6 var2 0 var1 var0)))
(assert (forall ((var0 Int) (var1 Int) (var2 Int) (var3 Int) (var4 Int) (var5 Int) (var6 Int) (var7 Int) (var8 Int) (var9 Int) (var10 Int) (var11 Int) (var12 Int) (var13 Int) (var14 Int) (var15 Int) (var16 Int) (var17 Int) (var18 Int) (var19 Int) (var20 Int) (var21 Int) (var22 Int) (var23 Int) (var24 Int) (var25 Int) (var26 Int) (var27 Int)) (or (not (and (inv_main268 var27 var26 var25 var24 var23 var22 var21 var20 var19 var18 var17 var16 var15 var14 var13 var12 var11 var10 var9 var8 var7 var6 var5 var4 var3 var2 var1 var0) (and (= var5 (+ var17 (* (- 1) var16))) (and (<= 0 (+ var17 (* (- 1) var16))) (and (= var6 var0) (<= 0 var0)))))) (inv_main276 var27 var26 var25 var24 var23 var22 var21 var20 var19 var18 var17 var16 var15 var14 var13 var12 var11 var10 var9 var8 var7 var6 var5 var4 var3 var2 var1 (+ var16 (* (- 1) var15))))))
(assert (forall ((var0 Int) (var1 Int) (var2 Int) (var3 Int) (var4 Int) (var5 Int) (var6 Int) (var7 Int) (var8 Int) (var9 Int) (var10 Int) (var11 Int) (var12 Int) (var13 Int) (var14 Int) (var15 Int) (var16 Int) (var17 Int) (var18 Int) (var19 Int) (var20 Int) (var21 Int) (var22 Int) (var23 Int) (var24 Int) (var25 Int) (var26 Int) (var27 Int)) (or (not (and (inv_main268 var27 var26 var25 var24 var23 var22 var21 var20 var19 var18 var17 var16 var15 var14 var13 var12 var11 var10 var9 var8 var7 var6 var5 var4 var3 var2 var1 var0) (and (= var5 (* (- 1) (+ var17 (* (- 1) var16)))) (and (not (<= 0 (+ var17 (* (- 1) var16)))) (and (= var6 var0) (<= 0 var0)))))) (inv_main276 var27 var26 var25 var24 var23 var22 var21 var20 var19 var18 var17 var16 var15 var14 var13 var12 var11 var10 var9 var8 var7 var6 var5 var4 var3 var2 var1 (+ var16 (* (- 1) var15))))))
(assert (forall ((var0 Int) (var1 Int) (var2 Int) (var3 Int) (var4 Int) (var5 Int) (var6 Int) (var7 Int) (var8 Int) (var9 Int) (var10 Int) (var11 Int) (var12 Int) (var13 Int) (var14 Int) (var15 Int) (var16 Int) (var17 Int) (var18 Int) (var19 Int) (var20 Int) (var21 Int) (var22 Int) (var23 Int) (var24 Int) (var25 Int) (var26 Int) (var27 Int)) (or (not (and (inv_main268 var27 var26 var25 var24 var23 var22 var21 var20 var19 var18 var17 var16 var15 var14 var13 var12 var11 var10 var9 var8 var7 var6 var5 var4 var3 var2 var1 var0) (and (= var5 (+ var17 (* (- 1) var16))) (and (<= 0 (+ var17 (* (- 1) var16))) (and (= var6 (* (- 1) var0)) (not (<= 0 var0))))))) (inv_main276 var27 var26 var25 var24 var23 var22 var21 var20 var19 var18 var17 var16 var15 var14 var13 var12 var11 var10 var9 var8 var7 var6 var5 var4 var3 var2 var1 (+ var16 (* (- 1) var15))))))
(assert (forall ((var0 Int) (var1 Int) (var2 Int) (var3 Int) (var4 Int) (var5 Int) (var6 Int) (var7 Int) (var8 Int) (var9 Int) (var10 Int) (var11 Int) (var12 Int) (var13 Int) (var14 Int) (var15 Int) (var16 Int) (var17 Int) (var18 Int) (var19 Int) (var20 Int) (var21 Int) (var22 Int) (var23 Int) (var24 Int) (var25 Int) (var26 Int) (var27 Int)) (or (not (and (inv_main268 var27 var26 var25 var24 var23 var22 var21 var20 var19 var18 var17 var16 var15 var14 var13 var12 var11 var10 var9 var8 var7 var6 var5 var4 var3 var2 var1 var0) (and (= var5 (* (- 1) (+ var17 (* (- 1) var16)))) (and (not (<= 0 (+ var17 (* (- 1) var16)))) (and (= var6 (* (- 1) var0)) (not (<= 0 var0))))))) (inv_main276 var27 var26 var25 var24 var23 var22 var21 var20 var19 var18 var17 var16 var15 var14 var13 var12 var11 var10 var9 var8 var7 var6 var5 var4 var3 var2 var1 (+ var16 (* (- 1) var15))))))
(assert (forall ((var0 Int) (var1 Int) (var2 Int) (var3 Int) (var4 Int) (var5 Int) (var6 Int) (var7 Int) (var8 Int) (var9 Int) (var10 Int) (var11 Int) (var12 Int) (var13 Int) (var14 Int) (var15 Int) (var16 Int) (var17 Int) (var18 Int) (var19 Int) (var20 Int) (var21 Int) (var22 Int) (var23 Int) (var24 Int) (var25 Int) (var26 Int) (var27 Int)) (or (not (and (inv_main252 var27 var26 var25 var24 var23 var22 var21 var20 var19 var18 var17 var16 var15 var14 var13 var12 var11 var10 var9 var8 var7 var6 var5 var4 var3 var2 var1 var0) (and (= var9 (+ var21 (* (- 1) var20))) (and (<= 0 (+ var21 (* (- 1) var20))) (and (= var10 var0) (<= 0 var0)))))) (inv_main260 var27 var26 var25 var24 var23 var22 var21 var20 var19 var18 var17 var16 var15 var14 var13 var12 var11 var10 var9 var8 var7 var6 var5 var4 var3 var2 var1 (+ var20 (* (- 1) var19))))))
(assert (forall ((var0 Int) (var1 Int) (var2 Int) (var3 Int) (var4 Int) (var5 Int) (var6 Int) (var7 Int) (var8 Int) (var9 Int) (var10 Int) (var11 Int) (var12 Int) (var13 Int) (var14 Int) (var15 Int) (var16 Int) (var17 Int) (var18 Int) (var19 Int) (var20 Int) (var21 Int) (var22 Int) (var23 Int) (var24 Int) (var25 Int) (var26 Int) (var27 Int)) (or (not (and (inv_main252 var27 var26 var25 var24 var23 var22 var21 var20 var19 var18 var17 var16 var15 var14 var13 var12 var11 var10 var9 var8 var7 var6 var5 var4 var3 var2 var1 var0) (and (= var9 (* (- 1) (+ var21 (* (- 1) var20)))) (and (not (<= 0 (+ var21 (* (- 1) var20)))) (and (= var10 var0) (<= 0 var0)))))) (inv_main260 var27 var26 var25 var24 var23 var22 var21 var20 var19 var18 var17 var16 var15 var14 var13 var12 var11 var10 var9 var8 var7 var6 var5 var4 var3 var2 var1 (+ var20 (* (- 1) var19))))))
(assert (forall ((var0 Int) (var1 Int) (var2 Int) (var3 Int) (var4 Int) (var5 Int) (var6 Int) (var7 Int) (var8 Int) (var9 Int) (var10 Int) (var11 Int) (var12 Int) (var13 Int) (var14 Int) (var15 Int) (var16 Int) (var17 Int) (var18 Int) (var19 Int) (var20 Int) (var21 Int) (var22 Int) (var23 Int) (var24 Int) (var25 Int) (var26 Int) (var27 Int)) (or (not (and (inv_main252 var27 var26 var25 var24 var23 var22 var21 var20 var19 var18 var17 var16 var15 var14 var13 var12 var11 var10 var9 var8 var7 var6 var5 var4 var3 var2 var1 var0) (and (= var9 (+ var21 (* (- 1) var20))) (and (<= 0 (+ var21 (* (- 1) var20))) (and (= var10 (* (- 1) var0)) (not (<= 0 var0))))))) (inv_main260 var27 var26 var25 var24 var23 var22 var21 var20 var19 var18 var17 var16 var15 var14 var13 var12 var11 var10 var9 var8 var7 var6 var5 var4 var3 var2 var1 (+ var20 (* (- 1) var19))))))
(assert (forall ((var0 Int) (var1 Int) (var2 Int) (var3 Int) (var4 Int) (var5 Int) (var6 Int) (var7 Int) (var8 Int) (var9 Int) (var10 Int) (var11 Int) (var12 Int) (var13 Int) (var14 Int) (var15 Int) (var16 Int) (var17 Int) (var18 Int) (var19 Int) (var20 Int) (var21 Int) (var22 Int) (var23 Int) (var24 Int) (var25 Int) (var26 Int) (var27 Int)) (or (not (and (inv_main252 var27 var26 var25 var24 var23 var22 var21 var20 var19 var18 var17 var16 var15 var14 var13 var12 var11 var10 var9 var8 var7 var6 var5 var4 var3 var2 var1 var0) (and (= var9 (* (- 1) (+ var21 (* (- 1) var20)))) (and (not (<= 0 (+ var21 (* (- 1) var20)))) (and (= var10 (* (- 1) var0)) (not (<= 0 var0))))))) (inv_main260 var27 var26 var25 var24 var23 var22 var21 var20 var19 var18 var17 var16 var15 var14 var13 var12 var11 var10 var9 var8 var7 var6 var5 var4 var3 var2 var1 (+ var20 (* (- 1) var19))))))
(assert (forall ((var0 Int) (var1 Int) (var2 Int) (var3 Int) (var4 Int) (var5 Int) (var6 Int) (var7 Int) (var8 Int) (var9 Int) (var10 Int) (var11 Int) (var12 Int) (var13 Int) (var14 Int) (var15 Int) (var16 Int) (var17 Int) (var18 Int) (var19 Int) (var20 Int) (var21 Int) (var22 Int) (var23 Int) (var24 Int) (var25 Int) (var26 Int) (var27 Int)) (or (not (and (inv_main284 var27 var26 var25 var24 var23 var22 var21 var20 var19 var18 var17 var16 var15 var14 var13 var12 var11 var10 var9 var8 var7 var6 var5 var4 var3 var2 var1 var0) (and (= var2 var0) (<= 0 var0)))) (inv_main287 var27 var26 var25 var24 var23 var22 var21 var20 var19 var18 var17 var16 var15 var14 var13 var12 var11 var10 var9 var8 var7 var6 var5 var4 var3 var2 var1 var0))))
(assert (forall ((var0 Int) (var1 Int) (var2 Int) (var3 Int) (var4 Int) (var5 Int) (var6 Int) (var7 Int) (var8 Int) (var9 Int) (var10 Int) (var11 Int) (var12 Int) (var13 Int) (var14 Int) (var15 Int) (var16 Int) (var17 Int) (var18 Int) (var19 Int) (var20 Int) (var21 Int) (var22 Int) (var23 Int) (var24 Int) (var25 Int) (var26 Int) (var27 Int)) (or (not (and (inv_main284 var27 var26 var25 var24 var23 var22 var21 var20 var19 var18 var17 var16 var15 var14 var13 var12 var11 var10 var9 var8 var7 var6 var5 var4 var3 var2 var1 var0) (and (= var2 (* (- 1) var0)) (not (<= 0 var0))))) (inv_main287 var27 var26 var25 var24 var23 var22 var21 var20 var19 var18 var17 var16 var15 var14 var13 var12 var11 var10 var9 var8 var7 var6 var5 var4 var3 var2 var1 (* (- 1) var0)))))
(assert (forall ((var0 Int) (var1 Int) (var2 Int) (var3 Int) (var4 Int) (var5 Int) (var6 Int) (var7 Int) (var8 Int) (var9 Int) (var10 Int) (var11 Int) (var12 Int) (var13 Int) (var14 Int) (var15 Int) (var16 Int) (var17 Int) (var18 Int) (var19 Int) (var20 Int) (var21 Int) (var22 Int) (var23 Int) (var24 Int) (var25 Int) (var26 Int) (var27 Int)) (or (not (and (inv_main276 var27 var26 var25 var24 var23 var22 var21 var20 var19 var18 var17 var16 var15 var14 var13 var12 var11 var10 var9 var8 var7 var6 var5 var4 var3 var2 var1 var0) (and (= var3 (+ var15 (* (- 1) var14))) (and (<= 0 (+ var15 (* (- 1) var14))) (and (= var4 var0) (<= 0 var0)))))) (inv_main284 var27 var26 var25 var24 var23 var22 var21 var20 var19 var18 var17 var16 var15 var14 var13 var12 var11 var10 var9 var8 var7 var6 var5 var4 var3 var2 var1 (+ var14 (* (- 1) var13))))))
(assert (forall ((var0 Int) (var1 Int) (var2 Int) (var3 Int) (var4 Int) (var5 Int) (var6 Int) (var7 Int) (var8 Int) (var9 Int) (var10 Int) (var11 Int) (var12 Int) (var13 Int) (var14 Int) (var15 Int) (var16 Int) (var17 Int) (var18 Int) (var19 Int) (var20 Int) (var21 Int) (var22 Int) (var23 Int) (var24 Int) (var25 Int) (var26 Int) (var27 Int)) (or (not (and (inv_main276 var27 var26 var25 var24 var23 var22 var21 var20 var19 var18 var17 var16 var15 var14 var13 var12 var11 var10 var9 var8 var7 var6 var5 var4 var3 var2 var1 var0) (and (= var3 (* (- 1) (+ var15 (* (- 1) var14)))) (and (not (<= 0 (+ var15 (* (- 1) var14)))) (and (= var4 var0) (<= 0 var0)))))) (inv_main284 var27 var26 var25 var24 var23 var22 var21 var20 var19 var18 var17 var16 var15 var14 var13 var12 var11 var10 var9 var8 var7 var6 var5 var4 var3 var2 var1 (+ var14 (* (- 1) var13))))))
(assert (forall ((var0 Int) (var1 Int) (var2 Int) (var3 Int) (var4 Int) (var5 Int) (var6 Int) (var7 Int) (var8 Int) (var9 Int) (var10 Int) (var11 Int) (var12 Int) (var13 Int) (var14 Int) (var15 Int) (var16 Int) (var17 Int) (var18 Int) (var19 Int) (var20 Int) (var21 Int) (var22 Int) (var23 Int) (var24 Int) (var25 Int) (var26 Int) (var27 Int)) (or (not (and (inv_main276 var27 var26 var25 var24 var23 var22 var21 var20 var19 var18 var17 var16 var15 var14 var13 var12 var11 var10 var9 var8 var7 var6 var5 var4 var3 var2 var1 var0) (and (= var3 (+ var15 (* (- 1) var14))) (and (<= 0 (+ var15 (* (- 1) var14))) (and (= var4 (* (- 1) var0)) (not (<= 0 var0))))))) (inv_main284 var27 var26 var25 var24 var23 var22 var21 var20 var19 var18 var17 var16 var15 var14 var13 var12 var11 var10 var9 var8 var7 var6 var5 var4 var3 var2 var1 (+ var14 (* (- 1) var13))))))
(assert (forall ((var0 Int) (var1 Int) (var2 Int) (var3 Int) (var4 Int) (var5 Int) (var6 Int) (var7 Int) (var8 Int) (var9 Int) (var10 Int) (var11 Int) (var12 Int) (var13 Int) (var14 Int) (var15 Int) (var16 Int) (var17 Int) (var18 Int) (var19 Int) (var20 Int) (var21 Int) (var22 Int) (var23 Int) (var24 Int) (var25 Int) (var26 Int) (var27 Int)) (or (not (and (inv_main276 var27 var26 var25 var24 var23 var22 var21 var20 var19 var18 var17 var16 var15 var14 var13 var12 var11 var10 var9 var8 var7 var6 var5 var4 var3 var2 var1 var0) (and (= var3 (* (- 1) (+ var15 (* (- 1) var14)))) (and (not (<= 0 (+ var15 (* (- 1) var14)))) (and (= var4 (* (- 1) var0)) (not (<= 0 var0))))))) (inv_main284 var27 var26 var25 var24 var23 var22 var21 var20 var19 var18 var17 var16 var15 var14 var13 var12 var11 var10 var9 var8 var7 var6 var5 var4 var3 var2 var1 (+ var14 (* (- 1) var13))))))
(assert (forall ((var0 Int) (var1 Int) (var2 Int) (var3 Int) (var4 Int) (var5 Int) (var6 Int) (var7 Int) (var8 Int) (var9 Int) (var10 Int) (var11 Int) (var12 Int) (var13 Int) (var14 Int) (var15 Int) (var16 Int) (var17 Int) (var18 Int) (var19 Int) (var20 Int) (var21 Int) (var22 Int) (var23 Int) (var24 Int) (var25 Int) (var26 Int) (var27 Int)) (or (not (and (inv_main260 var27 var26 var25 var24 var23 var22 var21 var20 var19 var18 var17 var16 var15 var14 var13 var12 var11 var10 var9 var8 var7 var6 var5 var4 var3 var2 var1 var0) (and (= var7 (+ var19 (* (- 1) var18))) (and (<= 0 (+ var19 (* (- 1) var18))) (and (= var8 var0) (<= 0 var0)))))) (inv_main268 var27 var26 var25 var24 var23 var22 var21 var20 var19 var18 var17 var16 var15 var14 var13 var12 var11 var10 var9 var8 var7 var6 var5 var4 var3 var2 var1 (+ var18 (* (- 1) var17))))))
(assert (forall ((var0 Int) (var1 Int) (var2 Int) (var3 Int) (var4 Int) (var5 Int) (var6 Int) (var7 Int) (var8 Int) (var9 Int) (var10 Int) (var11 Int) (var12 Int) (var13 Int) (var14 Int) (var15 Int) (var16 Int) (var17 Int) (var18 Int) (var19 Int) (var20 Int) (var21 Int) (var22 Int) (var23 Int) (var24 Int) (var25 Int) (var26 Int) (var27 Int)) (or (not (and (inv_main260 var27 var26 var25 var24 var23 var22 var21 var20 var19 var18 var17 var16 var15 var14 var13 var12 var11 var10 var9 var8 var7 var6 var5 var4 var3 var2 var1 var0) (and (= var7 (* (- 1) (+ var19 (* (- 1) var18)))) (and (not (<= 0 (+ var19 (* (- 1) var18)))) (and (= var8 var0) (<= 0 var0)))))) (inv_main268 var27 var26 var25 var24 var23 var22 var21 var20 var19 var18 var17 var16 var15 var14 var13 var12 var11 var10 var9 var8 var7 var6 var5 var4 var3 var2 var1 (+ var18 (* (- 1) var17))))))
(assert (forall ((var0 Int) (var1 Int) (var2 Int) (var3 Int) (var4 Int) (var5 Int) (var6 Int) (var7 Int) (var8 Int) (var9 Int) (var10 Int) (var11 Int) (var12 Int) (var13 Int) (var14 Int) (var15 Int) (var16 Int) (var17 Int) (var18 Int) (var19 Int) (var20 Int) (var21 Int) (var22 Int) (var23 Int) (var24 Int) (var25 Int) (var26 Int) (var27 Int)) (or (not (and (inv_main260 var27 var26 var25 var24 var23 var22 var21 var20 var19 var18 var17 var16 var15 var14 var13 var12 var11 var10 var9 var8 var7 var6 var5 var4 var3 var2 var1 var0) (and (= var7 (+ var19 (* (- 1) var18))) (and (<= 0 (+ var19 (* (- 1) var18))) (and (= var8 (* (- 1) var0)) (not (<= 0 var0))))))) (inv_main268 var27 var26 var25 var24 var23 var22 var21 var20 var19 var18 var17 var16 var15 var14 var13 var12 var11 var10 var9 var8 var7 var6 var5 var4 var3 var2 var1 (+ var18 (* (- 1) var17))))))
(assert (forall ((var0 Int) (var1 Int) (var2 Int) (var3 Int) (var4 Int) (var5 Int) (var6 Int) (var7 Int) (var8 Int) (var9 Int) (var10 Int) (var11 Int) (var12 Int) (var13 Int) (var14 Int) (var15 Int) (var16 Int) (var17 Int) (var18 Int) (var19 Int) (var20 Int) (var21 Int) (var22 Int) (var23 Int) (var24 Int) (var25 Int) (var26 Int) (var27 Int)) (or (not (and (inv_main260 var27 var26 var25 var24 var23 var22 var21 var20 var19 var18 var17 var16 var15 var14 var13 var12 var11 var10 var9 var8 var7 var6 var5 var4 var3 var2 var1 var0) (and (= var7 (* (- 1) (+ var19 (* (- 1) var18)))) (and (not (<= 0 (+ var19 (* (- 1) var18)))) (and (= var8 (* (- 1) var0)) (not (<= 0 var0))))))) (inv_main268 var27 var26 var25 var24 var23 var22 var21 var20 var19 var18 var17 var16 var15 var14 var13 var12 var11 var10 var9 var8 var7 var6 var5 var4 var3 var2 var1 (+ var18 (* (- 1) var17))))))
(assert (forall ((var0 Int) (var1 Int) (var2 Int) (var3 Int) (var4 Int) (var5 Int) (var6 Int) (var7 Int) (var8 Int) (var9 Int) (var10 Int) (var11 Int) (var12 Int) (var13 Int) (var14 Int) (var15 Int) (var16 Int) (var17 Int) (var18 Int) (var19 Int) (var20 Int) (var21 Int) (var22 Int) (var23 Int) (var24 Int) (var25 Int) (var26 Int)) (or (not (and (inv_main6 var26 var25 var24 var23) (and (and (and (and (and (and (and (and (and (and (and (and (and (and (and (and (and (and (and (and (and (and (and (and (and (= var22 (+ var21 (* (- 1) var20))) (and (<= 0 (+ var21 (* (- 1) var20))) (and (= var19 (+ var18 (* (- 1) var21))) (<= 0 (+ var18 (* (- 1) var21)))))) (and (not (= var17 var16)) (and (not (= var15 var16)) (and (not (= var15 var17)) (and (not (= var14 var16)) (and (not (= var14 var17)) (and (not (= var14 var15)) (and (not (= var13 var16)) (and (not (= var13 var17)) (and (not (= var13 var15)) (and (not (= var13 var14)) (and (not (= var12 var16)) (and (not (= var12 var17)) (and (not (= var12 var15)) (and (not (= var12 var14)) (and (not (= var12 var13)) (and (not (= var11 var16)) (and (not (= var11 var17)) (and (not (= var11 var15)) (and (not (= var11 var14)) (and (not (= var11 var13)) (and (not (= var11 var12)) (and (not (= var10 var16)) (and (not (= var10 var17)) (and (not (= var10 var15)) (and (not (= var10 var14)) (and (not (= var10 var13)) (and (not (= var10 var12)) (and (not (= var10 var11)) (and (not (= var9 var16)) (and (not (= var9 var17)) (and (not (= var9 var15)) (and (not (= var9 var14)) (and (not (= var9 var13)) (and (not (= var9 var12)) (and (not (= var9 var11)) (and (not (= var9 var10)) (and (not (= var22 var16)) (and (not (= var22 var17)) (and (not (= var22 var15)) (and (not (= var22 var14)) (and (not (= var22 var13)) (and (not (= var22 var12)) (and (not (= var22 var11)) (and (not (= var22 var10)) (and (not (= var22 var9)) (and (not (= var19 var16)) (and (not (= var19 var17)) (and (not (= var19 var15)) (and (not (= var19 var14)) (and (not (= var19 var13)) (and (not (= var19 var12)) (and (not (= var19 var11)) (and (not (= var19 var10)) (and (not (= var19 var9)) (and (not (= var19 var22)) (and (not (= var8 var7)) (and (not (= var6 var7)) (and (not (= var6 var8)) (and (not (= var5 var7)) (and (not (= var5 var8)) (and (not (= var5 var6)) (and (not (= var4 var7)) (and (not (= var4 var8)) (and (not (= var4 var6)) (and (not (= var4 var5)) (and (not (= var3 var7)) (and (not (= var3 var8)) (and (not (= var3 var6)) (and (not (= var3 var5)) (and (not (= var3 var4)) (and (not (= var2 var7)) (and (not (= var2 var8)) (and (not (= var2 var6)) (and (not (= var2 var5)) (and (not (= var2 var4)) (and (not (= var2 var3)) (and (not (= var1 var7)) (and (not (= var1 var8)) (and (not (= var1 var6)) (and (not (= var1 var5)) (and (not (= var1 var4)) (and (not (= var1 var3)) (and (not (= var1 var2)) (and (not (= var0 var7)) (and (not (= var0 var8)) (and (not (= var0 var6)) (and (not (= var0 var5)) (and (not (= var0 var4)) (and (not (= var0 var3)) (and (not (= var0 var2)) (and (not (= var0 var1)) (and (not (= var20 var7)) (and (not (= var20 var8)) (and (not (= var20 var6)) (and (not (= var20 var5)) (and (not (= var20 var4)) (and (not (= var20 var3)) (and (not (= var20 var2)) (and (not (= var20 var1)) (and (not (= var20 var0)) (and (not (= var21 var7)) (and (not (= var21 var8)) (and (not (= var21 var6)) (and (not (= var21 var5)) (and (not (= var21 var4)) (and (not (= var21 var3)) (and (not (= var21 var2)) (and (not (= var21 var1)) (and (not (= var21 var0)) (and (not (= var21 var20)) (and (not (= var18 var7)) (and (not (= var18 var8)) (and (not (= var18 var6)) (and (not (= var18 var5)) (and (not (= var18 var4)) (and (not (= var18 var3)) (and (not (= var18 var2)) (and (not (= var18 var1)) (and (not (= var18 var0)) (and (not (= var18 var20)) (not (= var18 var21))))))))))))))))))))))))))))))))))))))))))))))))))))))))))))))))))))))))))))))))))))))))))))))))))))))))))))))))))))))))))) (and (<= 0 (+ 11 (* (- 1) var16))) (<= 0 (+ var16 (- 1))))) (and (<= 0 (+ 11 (* (- 1) var17))) (<= 0 (+ var17 (- 1))))) (and (<= 0 (+ 11 (* (- 1) var15))) (<= 0 (+ var15 (- 1))))) (and (<= 0 (+ 11 (* (- 1) var14))) (<= 0 (+ var14 (- 1))))) (and (<= 0 (+ 11 (* (- 1) var13))) (<= 0 (+ var13 (- 1))))) (and (<= 0 (+ 11 (* (- 1) var12))) (<= 0 (+ var12 (- 1))))) (and (<= 0 (+ 11 (* (- 1) var11))) (<= 0 (+ var11 (- 1))))) (and (<= 0 (+ 11 (* (- 1) var10))) (<= 0 (+ var10 (- 1))))) (and (<= 0 (+ 11 (* (- 1) var9))) (<= 0 (+ var9 (- 1))))) (and (<= 0 (+ 11 (* (- 1) var22))) (<= 0 (+ var22 (- 1))))) (and (<= 0 (+ 11 (* (- 1) var19))) (<= 0 (+ var19 (- 1))))) (and (<= 0 (+ 11 (* (- 1) var7))) (<= 0 var7))) (and (<= 0 (+ 11 (* (- 1) var8))) (<= 0 var8))) (and (<= 0 (+ 11 (* (- 1) var6))) (<= 0 var6))) (and (<= 0 (+ 11 (* (- 1) var5))) (<= 0 var5))) (and (<= 0 (+ 11 (* (- 1) var4))) (<= 0 var4))) (and (<= 0 (+ 11 (* (- 1) var3))) (<= 0 var3))) (and (<= 0 (+ 11 (* (- 1) var2))) (<= 0 var2))) (and (<= 0 (+ 11 (* (- 1) var1))) (<= 0 var1))) (and (<= 0 (+ 11 (* (- 1) var0))) (<= 0 var0))) (and (<= 0 (+ 11 (* (- 1) var20))) (<= 0 var20))) (and (<= 0 (+ 11 (* (- 1) var21))) (<= 0 var21))) (and (<= 0 (+ 11 (* (- 1) var18))) (<= 0 var18))))) (inv_main252 var26 var25 var24 var18 var21 var20 var0 var1 var2 var3 var4 var5 var6 var8 var7 var19 var22 var9 var10 var11 var12 var13 var14 var15 var17 var16 1 (+ var20 (* (- 1) var0))))))
(assert (forall ((var0 Int) (var1 Int) (var2 Int) (var3 Int) (var4 Int) (var5 Int) (var6 Int) (var7 Int) (var8 Int) (var9 Int) (var10 Int) (var11 Int) (var12 Int) (var13 Int) (var14 Int) (var15 Int) (var16 Int) (var17 Int) (var18 Int) (var19 Int) (var20 Int) (var21 Int) (var22 Int) (var23 Int) (var24 Int) (var25 Int) (var26 Int)) (or (not (and (inv_main6 var26 var25 var24 var23) (and (and (and (and (and (and (and (and (and (and (and (and (and (and (and (and (and (and (and (and (and (and (and (and (and (= var22 (* (- 1) (+ var21 (* (- 1) var20)))) (and (not (<= 0 (+ var21 (* (- 1) var20)))) (and (= var19 (+ var18 (* (- 1) var21))) (<= 0 (+ var18 (* (- 1) var21)))))) (and (not (= var17 var16)) (and (not (= var15 var16)) (and (not (= var15 var17)) (and (not (= var14 var16)) (and (not (= var14 var17)) (and (not (= var14 var15)) (and (not (= var13 var16)) (and (not (= var13 var17)) (and (not (= var13 var15)) (and (not (= var13 var14)) (and (not (= var12 var16)) (and (not (= var12 var17)) (and (not (= var12 var15)) (and (not (= var12 var14)) (and (not (= var12 var13)) (and (not (= var11 var16)) (and (not (= var11 var17)) (and (not (= var11 var15)) (and (not (= var11 var14)) (and (not (= var11 var13)) (and (not (= var11 var12)) (and (not (= var10 var16)) (and (not (= var10 var17)) (and (not (= var10 var15)) (and (not (= var10 var14)) (and (not (= var10 var13)) (and (not (= var10 var12)) (and (not (= var10 var11)) (and (not (= var9 var16)) (and (not (= var9 var17)) (and (not (= var9 var15)) (and (not (= var9 var14)) (and (not (= var9 var13)) (and (not (= var9 var12)) (and (not (= var9 var11)) (and (not (= var9 var10)) (and (not (= var22 var16)) (and (not (= var22 var17)) (and (not (= var22 var15)) (and (not (= var22 var14)) (and (not (= var22 var13)) (and (not (= var22 var12)) (and (not (= var22 var11)) (and (not (= var22 var10)) (and (not (= var22 var9)) (and (not (= var19 var16)) (and (not (= var19 var17)) (and (not (= var19 var15)) (and (not (= var19 var14)) (and (not (= var19 var13)) (and (not (= var19 var12)) (and (not (= var19 var11)) (and (not (= var19 var10)) (and (not (= var19 var9)) (and (not (= var19 var22)) (and (not (= var8 var7)) (and (not (= var6 var7)) (and (not (= var6 var8)) (and (not (= var5 var7)) (and (not (= var5 var8)) (and (not (= var5 var6)) (and (not (= var4 var7)) (and (not (= var4 var8)) (and (not (= var4 var6)) (and (not (= var4 var5)) (and (not (= var3 var7)) (and (not (= var3 var8)) (and (not (= var3 var6)) (and (not (= var3 var5)) (and (not (= var3 var4)) (and (not (= var2 var7)) (and (not (= var2 var8)) (and (not (= var2 var6)) (and (not (= var2 var5)) (and (not (= var2 var4)) (and (not (= var2 var3)) (and (not (= var1 var7)) (and (not (= var1 var8)) (and (not (= var1 var6)) (and (not (= var1 var5)) (and (not (= var1 var4)) (and (not (= var1 var3)) (and (not (= var1 var2)) (and (not (= var0 var7)) (and (not (= var0 var8)) (and (not (= var0 var6)) (and (not (= var0 var5)) (and (not (= var0 var4)) (and (not (= var0 var3)) (and (not (= var0 var2)) (and (not (= var0 var1)) (and (not (= var20 var7)) (and (not (= var20 var8)) (and (not (= var20 var6)) (and (not (= var20 var5)) (and (not (= var20 var4)) (and (not (= var20 var3)) (and (not (= var20 var2)) (and (not (= var20 var1)) (and (not (= var20 var0)) (and (not (= var21 var7)) (and (not (= var21 var8)) (and (not (= var21 var6)) (and (not (= var21 var5)) (and (not (= var21 var4)) (and (not (= var21 var3)) (and (not (= var21 var2)) (and (not (= var21 var1)) (and (not (= var21 var0)) (and (not (= var21 var20)) (and (not (= var18 var7)) (and (not (= var18 var8)) (and (not (= var18 var6)) (and (not (= var18 var5)) (and (not (= var18 var4)) (and (not (= var18 var3)) (and (not (= var18 var2)) (and (not (= var18 var1)) (and (not (= var18 var0)) (and (not (= var18 var20)) (not (= var18 var21))))))))))))))))))))))))))))))))))))))))))))))))))))))))))))))))))))))))))))))))))))))))))))))))))))))))))))))))))))))))))) (and (<= 0 (+ 11 (* (- 1) var16))) (<= 0 (+ var16 (- 1))))) (and (<= 0 (+ 11 (* (- 1) var17))) (<= 0 (+ var17 (- 1))))) (and (<= 0 (+ 11 (* (- 1) var15))) (<= 0 (+ var15 (- 1))))) (and (<= 0 (+ 11 (* (- 1) var14))) (<= 0 (+ var14 (- 1))))) (and (<= 0 (+ 11 (* (- 1) var13))) (<= 0 (+ var13 (- 1))))) (and (<= 0 (+ 11 (* (- 1) var12))) (<= 0 (+ var12 (- 1))))) (and (<= 0 (+ 11 (* (- 1) var11))) (<= 0 (+ var11 (- 1))))) (and (<= 0 (+ 11 (* (- 1) var10))) (<= 0 (+ var10 (- 1))))) (and (<= 0 (+ 11 (* (- 1) var9))) (<= 0 (+ var9 (- 1))))) (and (<= 0 (+ 11 (* (- 1) var22))) (<= 0 (+ var22 (- 1))))) (and (<= 0 (+ 11 (* (- 1) var19))) (<= 0 (+ var19 (- 1))))) (and (<= 0 (+ 11 (* (- 1) var7))) (<= 0 var7))) (and (<= 0 (+ 11 (* (- 1) var8))) (<= 0 var8))) (and (<= 0 (+ 11 (* (- 1) var6))) (<= 0 var6))) (and (<= 0 (+ 11 (* (- 1) var5))) (<= 0 var5))) (and (<= 0 (+ 11 (* (- 1) var4))) (<= 0 var4))) (and (<= 0 (+ 11 (* (- 1) var3))) (<= 0 var3))) (and (<= 0 (+ 11 (* (- 1) var2))) (<= 0 var2))) (and (<= 0 (+ 11 (* (- 1) var1))) (<= 0 var1))) (and (<= 0 (+ 11 (* (- 1) var0))) (<= 0 var0))) (and (<= 0 (+ 11 (* (- 1) var20))) (<= 0 var20))) (and (<= 0 (+ 11 (* (- 1) var21))) (<= 0 var21))) (and (<= 0 (+ 11 (* (- 1) var18))) (<= 0 var18))))) (inv_main252 var26 var25 var24 var18 var21 var20 var0 var1 var2 var3 var4 var5 var6 var8 var7 var19 var22 var9 var10 var11 var12 var13 var14 var15 var17 var16 1 (+ var20 (* (- 1) var0))))))
(assert (forall ((var0 Int) (var1 Int) (var2 Int) (var3 Int) (var4 Int) (var5 Int) (var6 Int) (var7 Int) (var8 Int) (var9 Int) (var10 Int) (var11 Int) (var12 Int) (var13 Int) (var14 Int) (var15 Int) (var16 Int) (var17 Int) (var18 Int) (var19 Int) (var20 Int) (var21 Int) (var22 Int) (var23 Int) (var24 Int) (var25 Int) (var26 Int)) (or (not (and (inv_main6 var26 var25 var24 var23) (and (and (and (and (and (and (and (and (and (and (and (and (and (and (and (and (and (and (and (and (and (and (and (and (and (= var22 (+ var21 (* (- 1) var20))) (and (<= 0 (+ var21 (* (- 1) var20))) (and (= var19 (* (- 1) (+ var18 (* (- 1) var21)))) (not (<= 0 (+ var18 (* (- 1) var21))))))) (and (not (= var17 var16)) (and (not (= var15 var16)) (and (not (= var15 var17)) (and (not (= var14 var16)) (and (not (= var14 var17)) (and (not (= var14 var15)) (and (not (= var13 var16)) (and (not (= var13 var17)) (and (not (= var13 var15)) (and (not (= var13 var14)) (and (not (= var12 var16)) (and (not (= var12 var17)) (and (not (= var12 var15)) (and (not (= var12 var14)) (and (not (= var12 var13)) (and (not (= var11 var16)) (and (not (= var11 var17)) (and (not (= var11 var15)) (and (not (= var11 var14)) (and (not (= var11 var13)) (and (not (= var11 var12)) (and (not (= var10 var16)) (and (not (= var10 var17)) (and (not (= var10 var15)) (and (not (= var10 var14)) (and (not (= var10 var13)) (and (not (= var10 var12)) (and (not (= var10 var11)) (and (not (= var9 var16)) (and (not (= var9 var17)) (and (not (= var9 var15)) (and (not (= var9 var14)) (and (not (= var9 var13)) (and (not (= var9 var12)) (and (not (= var9 var11)) (and (not (= var9 var10)) (and (not (= var22 var16)) (and (not (= var22 var17)) (and (not (= var22 var15)) (and (not (= var22 var14)) (and (not (= var22 var13)) (and (not (= var22 var12)) (and (not (= var22 var11)) (and (not (= var22 var10)) (and (not (= var22 var9)) (and (not (= var19 var16)) (and (not (= var19 var17)) (and (not (= var19 var15)) (and (not (= var19 var14)) (and (not (= var19 var13)) (and (not (= var19 var12)) (and (not (= var19 var11)) (and (not (= var19 var10)) (and (not (= var19 var9)) (and (not (= var19 var22)) (and (not (= var8 var7)) (and (not (= var6 var7)) (and (not (= var6 var8)) (and (not (= var5 var7)) (and (not (= var5 var8)) (and (not (= var5 var6)) (and (not (= var4 var7)) (and (not (= var4 var8)) (and (not (= var4 var6)) (and (not (= var4 var5)) (and (not (= var3 var7)) (and (not (= var3 var8)) (and (not (= var3 var6)) (and (not (= var3 var5)) (and (not (= var3 var4)) (and (not (= var2 var7)) (and (not (= var2 var8)) (and (not (= var2 var6)) (and (not (= var2 var5)) (and (not (= var2 var4)) (and (not (= var2 var3)) (and (not (= var1 var7)) (and (not (= var1 var8)) (and (not (= var1 var6)) (and (not (= var1 var5)) (and (not (= var1 var4)) (and (not (= var1 var3)) (and (not (= var1 var2)) (and (not (= var0 var7)) (and (not (= var0 var8)) (and (not (= var0 var6)) (and (not (= var0 var5)) (and (not (= var0 var4)) (and (not (= var0 var3)) (and (not (= var0 var2)) (and (not (= var0 var1)) (and (not (= var20 var7)) (and (not (= var20 var8)) (and (not (= var20 var6)) (and (not (= var20 var5)) (and (not (= var20 var4)) (and (not (= var20 var3)) (and (not (= var20 var2)) (and (not (= var20 var1)) (and (not (= var20 var0)) (and (not (= var21 var7)) (and (not (= var21 var8)) (and (not (= var21 var6)) (and (not (= var21 var5)) (and (not (= var21 var4)) (and (not (= var21 var3)) (and (not (= var21 var2)) (and (not (= var21 var1)) (and (not (= var21 var0)) (and (not (= var21 var20)) (and (not (= var18 var7)) (and (not (= var18 var8)) (and (not (= var18 var6)) (and (not (= var18 var5)) (and (not (= var18 var4)) (and (not (= var18 var3)) (and (not (= var18 var2)) (and (not (= var18 var1)) (and (not (= var18 var0)) (and (not (= var18 var20)) (not (= var18 var21))))))))))))))))))))))))))))))))))))))))))))))))))))))))))))))))))))))))))))))))))))))))))))))))))))))))))))))))))))))))))) (and (<= 0 (+ 11 (* (- 1) var16))) (<= 0 (+ var16 (- 1))))) (and (<= 0 (+ 11 (* (- 1) var17))) (<= 0 (+ var17 (- 1))))) (and (<= 0 (+ 11 (* (- 1) var15))) (<= 0 (+ var15 (- 1))))) (and (<= 0 (+ 11 (* (- 1) var14))) (<= 0 (+ var14 (- 1))))) (and (<= 0 (+ 11 (* (- 1) var13))) (<= 0 (+ var13 (- 1))))) (and (<= 0 (+ 11 (* (- 1) var12))) (<= 0 (+ var12 (- 1))))) (and (<= 0 (+ 11 (* (- 1) var11))) (<= 0 (+ var11 (- 1))))) (and (<= 0 (+ 11 (* (- 1) var10))) (<= 0 (+ var10 (- 1))))) (and (<= 0 (+ 11 (* (- 1) var9))) (<= 0 (+ var9 (- 1))))) (and (<= 0 (+ 11 (* (- 1) var22))) (<= 0 (+ var22 (- 1))))) (and (<= 0 (+ 11 (* (- 1) var19))) (<= 0 (+ var19 (- 1))))) (and (<= 0 (+ 11 (* (- 1) var7))) (<= 0 var7))) (and (<= 0 (+ 11 (* (- 1) var8))) (<= 0 var8))) (and (<= 0 (+ 11 (* (- 1) var6))) (<= 0 var6))) (and (<= 0 (+ 11 (* (- 1) var5))) (<= 0 var5))) (and (<= 0 (+ 11 (* (- 1) var4))) (<= 0 var4))) (and (<= 0 (+ 11 (* (- 1) var3))) (<= 0 var3))) (and (<= 0 (+ 11 (* (- 1) var2))) (<= 0 var2))) (and (<= 0 (+ 11 (* (- 1) var1))) (<= 0 var1))) (and (<= 0 (+ 11 (* (- 1) var0))) (<= 0 var0))) (and (<= 0 (+ 11 (* (- 1) var20))) (<= 0 var20))) (and (<= 0 (+ 11 (* (- 1) var21))) (<= 0 var21))) (and (<= 0 (+ 11 (* (- 1) var18))) (<= 0 var18))))) (inv_main252 var26 var25 var24 var18 var21 var20 var0 var1 var2 var3 var4 var5 var6 var8 var7 var19 var22 var9 var10 var11 var12 var13 var14 var15 var17 var16 1 (+ var20 (* (- 1) var0))))))
(assert (forall ((var0 Int) (var1 Int) (var2 Int) (var3 Int) (var4 Int) (var5 Int) (var6 Int) (var7 Int) (var8 Int) (var9 Int) (var10 Int) (var11 Int) (var12 Int) (var13 Int) (var14 Int) (var15 Int) (var16 Int) (var17 Int) (var18 Int) (var19 Int) (var20 Int) (var21 Int) (var22 Int) (var23 Int) (var24 Int) (var25 Int) (var26 Int)) (or (not (and (inv_main6 var26 var25 var24 var23) (and (and (and (and (and (and (and (and (and (and (and (and (and (and (and (and (and (and (and (and (and (and (and (and (and (= var22 (* (- 1) (+ var21 (* (- 1) var20)))) (and (not (<= 0 (+ var21 (* (- 1) var20)))) (and (= var19 (* (- 1) (+ var18 (* (- 1) var21)))) (not (<= 0 (+ var18 (* (- 1) var21))))))) (and (not (= var17 var16)) (and (not (= var15 var16)) (and (not (= var15 var17)) (and (not (= var14 var16)) (and (not (= var14 var17)) (and (not (= var14 var15)) (and (not (= var13 var16)) (and (not (= var13 var17)) (and (not (= var13 var15)) (and (not (= var13 var14)) (and (not (= var12 var16)) (and (not (= var12 var17)) (and (not (= var12 var15)) (and (not (= var12 var14)) (and (not (= var12 var13)) (and (not (= var11 var16)) (and (not (= var11 var17)) (and (not (= var11 var15)) (and (not (= var11 var14)) (and (not (= var11 var13)) (and (not (= var11 var12)) (and (not (= var10 var16)) (and (not (= var10 var17)) (and (not (= var10 var15)) (and (not (= var10 var14)) (and (not (= var10 var13)) (and (not (= var10 var12)) (and (not (= var10 var11)) (and (not (= var9 var16)) (and (not (= var9 var17)) (and (not (= var9 var15)) (and (not (= var9 var14)) (and (not (= var9 var13)) (and (not (= var9 var12)) (and (not (= var9 var11)) (and (not (= var9 var10)) (and (not (= var22 var16)) (and (not (= var22 var17)) (and (not (= var22 var15)) (and (not (= var22 var14)) (and (not (= var22 var13)) (and (not (= var22 var12)) (and (not (= var22 var11)) (and (not (= var22 var10)) (and (not (= var22 var9)) (and (not (= var19 var16)) (and (not (= var19 var17)) (and (not (= var19 var15)) (and (not (= var19 var14)) (and (not (= var19 var13)) (and (not (= var19 var12)) (and (not (= var19 var11)) (and (not (= var19 var10)) (and (not (= var19 var9)) (and (not (= var19 var22)) (and (not (= var8 var7)) (and (not (= var6 var7)) (and (not (= var6 var8)) (and (not (= var5 var7)) (and (not (= var5 var8)) (and (not (= var5 var6)) (and (not (= var4 var7)) (and (not (= var4 var8)) (and (not (= var4 var6)) (and (not (= var4 var5)) (and (not (= var3 var7)) (and (not (= var3 var8)) (and (not (= var3 var6)) (and (not (= var3 var5)) (and (not (= var3 var4)) (and (not (= var2 var7)) (and (not (= var2 var8)) (and (not (= var2 var6)) (and (not (= var2 var5)) (and (not (= var2 var4)) (and (not (= var2 var3)) (and (not (= var1 var7)) (and (not (= var1 var8)) (and (not (= var1 var6)) (and (not (= var1 var5)) (and (not (= var1 var4)) (and (not (= var1 var3)) (and (not (= var1 var2)) (and (not (= var0 var7)) (and (not (= var0 var8)) (and (not (= var0 var6)) (and (not (= var0 var5)) (and (not (= var0 var4)) (and (not (= var0 var3)) (and (not (= var0 var2)) (and (not (= var0 var1)) (and (not (= var20 var7)) (and (not (= var20 var8)) (and (not (= var20 var6)) (and (not (= var20 var5)) (and (not (= var20 var4)) (and (not (= var20 var3)) (and (not (= var20 var2)) (and (not (= var20 var1)) (and (not (= var20 var0)) (and (not (= var21 var7)) (and (not (= var21 var8)) (and (not (= var21 var6)) (and (not (= var21 var5)) (and (not (= var21 var4)) (and (not (= var21 var3)) (and (not (= var21 var2)) (and (not (= var21 var1)) (and (not (= var21 var0)) (and (not (= var21 var20)) (and (not (= var18 var7)) (and (not (= var18 var8)) (and (not (= var18 var6)) (and (not (= var18 var5)) (and (not (= var18 var4)) (and (not (= var18 var3)) (and (not (= var18 var2)) (and (not (= var18 var1)) (and (not (= var18 var0)) (and (not (= var18 var20)) (not (= var18 var21))))))))))))))))))))))))))))))))))))))))))))))))))))))))))))))))))))))))))))))))))))))))))))))))))))))))))))))))))))))))))) (and (<= 0 (+ 11 (* (- 1) var16))) (<= 0 (+ var16 (- 1))))) (and (<= 0 (+ 11 (* (- 1) var17))) (<= 0 (+ var17 (- 1))))) (and (<= 0 (+ 11 (* (- 1) var15))) (<= 0 (+ var15 (- 1))))) (and (<= 0 (+ 11 (* (- 1) var14))) (<= 0 (+ var14 (- 1))))) (and (<= 0 (+ 11 (* (- 1) var13))) (<= 0 (+ var13 (- 1))))) (and (<= 0 (+ 11 (* (- 1) var12))) (<= 0 (+ var12 (- 1))))) (and (<= 0 (+ 11 (* (- 1) var11))) (<= 0 (+ var11 (- 1))))) (and (<= 0 (+ 11 (* (- 1) var10))) (<= 0 (+ var10 (- 1))))) (and (<= 0 (+ 11 (* (- 1) var9))) (<= 0 (+ var9 (- 1))))) (and (<= 0 (+ 11 (* (- 1) var22))) (<= 0 (+ var22 (- 1))))) (and (<= 0 (+ 11 (* (- 1) var19))) (<= 0 (+ var19 (- 1))))) (and (<= 0 (+ 11 (* (- 1) var7))) (<= 0 var7))) (and (<= 0 (+ 11 (* (- 1) var8))) (<= 0 var8))) (and (<= 0 (+ 11 (* (- 1) var6))) (<= 0 var6))) (and (<= 0 (+ 11 (* (- 1) var5))) (<= 0 var5))) (and (<= 0 (+ 11 (* (- 1) var4))) (<= 0 var4))) (and (<= 0 (+ 11 (* (- 1) var3))) (<= 0 var3))) (and (<= 0 (+ 11 (* (- 1) var2))) (<= 0 var2))) (and (<= 0 (+ 11 (* (- 1) var1))) (<= 0 var1))) (and (<= 0 (+ 11 (* (- 1) var0))) (<= 0 var0))) (and (<= 0 (+ 11 (* (- 1) var20))) (<= 0 var20))) (and (<= 0 (+ 11 (* (- 1) var21))) (<= 0 var21))) (and (<= 0 (+ 11 (* (- 1) var18))) (<= 0 var18))))) (inv_main252 var26 var25 var24 var18 var21 var20 var0 var1 var2 var3 var4 var5 var6 var8 var7 var19 var22 var9 var10 var11 var12 var13 var14 var15 var17 var16 1 (+ var20 (* (- 1) var0))))))
(assert (forall ((var0 Int) (var1 Int) (var2 Int) (var3 Int) (var4 Int) (var5 Int) (var6 Int) (var7 Int) (var8 Int) (var9 Int) (var10 Int) (var11 Int) (var12 Int) (var13 Int) (var14 Int) (var15 Int) (var16 Int) (var17 Int) (var18 Int) (var19 Int) (var20 Int) (var21 Int) (var22 Int) (var23 Int) (var24 Int) (var25 Int) (var26 Int) (var27 Int)) (not (inv_main287 var27 var26 var25 var24 var23 var22 var21 var20 var19 var18 var17 var16 var15 var14 var13 var12 var11 var10 var9 var8 var7 var6 var5 var4 var3 var2 var1 var0))))
(check-sat)
